1 1927 8
2 1609 8
3 1580 8
4 1550 8
7 1494 8
11 1481 8
12 1444 8
103 1425 8
165 1384 8
168 1374 8



1 1870 8
2 1635 8
3 1556 8
4 1553 8
5 1552 8
6 1509 8
10 1411 8
196 1406 8
504 1402 8
883 1384 8



1 1907 8
2 1504 8
10 1468 8
20 1444 8
68 1427 8
96 1422 8
153 1406 8
562 1391 8
640 1390 8



1 1861 8
2 1518 8
4 1512 8
6 1488 8
9 1438 8
63 1407 8
723 1404 8
752 1399 8



1 1877 8
2 1568 8
3 1552 8
4 1495 8
5 1473 8
16 1460 8
19 1457 8
22 1455 8
47 1437 8
67 1400 8



